p cnf 64 228
18 19 20 21 22 23 0
39 40 41 42 43 44 0
-1 -24 0
-1 -31 0
-1 -39 0
-1 -45 0
-1 -53 0
-1 -57 0
-24 -31 0
-24 -39 0
-24 -45 0
-24 -53 0
-24 -57 0
-31 -39 0
-31 -45 0
-31 -53 0
-31 -57 0
-39 -45 0
-39 -53 0
-39 -57 0
-45 -53 0
-45 -57 0
-53 -57 0
-2 -8 0
-2 -14 0
-2 -18 0
-2 -25 0
-2 -32 0
-2 -46 0
-2 -54 0
-2 -58 0
-8 -14 0
-8 -18 0
-8 -25 0
-8 -32 0
-8 -46 0
-8 -54 0
-8 -58 0
-14 -18 0
-14 -25 0
-14 -32 0
-14 -46 0
-14 -54 0
-14 -58 0
-18 -25 0
-18 -32 0
-18 -46 0
-18 -54 0
-18 -58 0
-25 -32 0
-25 -46 0
-25 -54 0
-25 -58 0
-32 -46 0
-32 -54 0
-32 -58 0
-46 -54 0
-46 -58 0
-54 -58 0
-3 -9 0
-3 -19 0
-3 -26 0
-3 -33 0
-3 -47 0
-3 -59 0
-9 -19 0
-9 -26 0
-9 -33 0
-9 -47 0
-9 -59 0
-19 -26 0
-19 -33 0
-19 -47 0
-19 -59 0
-26 -33 0
-26 -47 0
-26 -59 0
-33 -47 0
-33 -59 0
-47 -59 0
-4 -10 0
-4 -20 0
-4 -27 0
-4 -34 0
-4 -40 0
-4 -48 0
-4 -60 0
-10 -20 0
-10 -27 0
-10 -34 0
-10 -40 0
-10 -48 0
-10 -60 0
-20 -27 0
-20 -34 0
-20 -40 0
-20 -48 0
-20 -60 0
-27 -34 0
-27 -40 0
-27 -48 0
-27 -60 0
-34 -40 0
-34 -48 0
-34 -60 0
-40 -48 0
-40 -60 0
-48 -60 0
-5 -11 0
-5 -15 0
-5 -35 0
-5 -41 0
-5 -49 0
-5 -55 0
-5 -61 0
-11 -15 0
-11 -35 0
-11 -41 0
-11 -49 0
-11 -55 0
-11 -61 0
-15 -35 0
-15 -41 0
-15 -49 0
-15 -55 0
-15 -61 0
-35 -41 0
-35 -49 0
-35 -55 0
-35 -61 0
-41 -49 0
-41 -55 0
-41 -61 0
-49 -55 0
-49 -61 0
-55 -61 0
-12 -16 0
-12 -21 0
-12 -28 0
-12 -36 0
-12 -42 0
-12 -50 0
-12 -62 0
-16 -21 0
-16 -28 0
-16 -36 0
-16 -42 0
-16 -50 0
-16 -62 0
-21 -28 0
-21 -36 0
-21 -42 0
-21 -50 0
-21 -62 0
-28 -36 0
-28 -42 0
-28 -50 0
-28 -62 0
-36 -42 0
-36 -50 0
-36 -62 0
-42 -50 0
-42 -62 0
-50 -62 0
-6 -13 0
-6 -22 0
-6 -29 0
-6 -37 0
-6 -43 0
-6 -51 0
-6 -63 0
-13 -22 0
-13 -29 0
-13 -37 0
-13 -43 0
-13 -51 0
-13 -63 0
-22 -29 0
-22 -37 0
-22 -43 0
-22 -51 0
-22 -63 0
-29 -37 0
-29 -43 0
-29 -51 0
-29 -63 0
-37 -43 0
-37 -51 0
-37 -63 0
-43 -51 0
-43 -63 0
-51 -63 0
-7 -17 0
-7 -23 0
-7 -30 0
-7 -38 0
-7 -44 0
-7 -52 0
-7 -56 0
-7 -64 0
-17 -23 0
-17 -30 0
-17 -38 0
-17 -44 0
-17 -52 0
-17 -56 0
-17 -64 0
-23 -30 0
-23 -38 0
-23 -44 0
-23 -52 0
-23 -56 0
-23 -64 0
-30 -38 0
-30 -44 0
-30 -52 0
-30 -56 0
-30 -64 0
-38 -44 0
-38 -52 0
-38 -56 0
-38 -64 0
-44 -52 0
-44 -56 0
-44 -64 0
-52 -56 0
-52 -64 0
-56 -64 0
